
Gurobi 7.5.2 (linux64) logging started Sat Jul  7 16:14:43 2018

Changed value of parameter LogFile to result/ilp/simNo_1-n_100-m_40-s_7-minVAF_0.05-cov_10000-k_1-fn_0.25-fp_0.0001-na_0.15.ILP.gurobiSolverLog
   Prev: gurobi.log  Default: 
Changed value of parameter TimeLimit to 86400.0
   Prev: 1e+100  Min: 0.0  Max: 1e+100  Default: 1e+100
Optimize a model with 639293 rows, 10765 columns and 1940420 nonzeros
Variable types: 0 continuous, 10765 integer (10765 binary)
Coefficient statistics:
  Matrix range     [4e-05, 4e+00]
  Objective range  [1e+00, 2e+01]
  Bounds range     [1e+00, 1e+00]
  RHS range        [5e-02, 2e+00]
Found heuristic solution: objective -13463.12081
Presolve removed 139007 rows and 1109 columns (presolve time = 5s) ...
Presolve removed 139671 rows and 1109 columns (presolve time = 10s) ...
Presolve removed 206071 rows and 1773 columns
Presolve time: 14.80s
Presolved: 433222 rows, 8992 columns, 1302184 nonzeros
Variable types: 0 continuous, 8992 integer (8992 binary)
Presolved: 8992 rows, 442214 columns, 1311176 nonzeros

Presolve removed 8992 rows and 442214 columns

Root simplex log...

Iteration    Objective       Primal Inf.    Dual Inf.      Time
       0    2.4197247e+01   0.000000e+00   6.592900e+04     18s
   18533   -2.8641207e+02   0.000000e+00   4.183300e+05     20s
   43950   -3.6346107e+02   0.000000e+00   3.460958e+04     25s
   53096   -3.8205007e+02   0.000000e+00   0.000000e+00     29s
   53096   -3.8205007e+02   0.000000e+00   0.000000e+00     29s

Root relaxation: objective -3.820501e+02, 53096 iterations, 13.26 seconds
Total elapsed time = 30.06s
Total elapsed time = 55.62s
Total elapsed time = 71.62s
Total elapsed time = 100.97s

    Nodes    |    Current Node    |     Objective Bounds      |     Work
 Expl Unexpl |  Obj  Depth IntInf | Incumbent    BestBd   Gap | It/Node Time

     0     0 -382.05007    0  576 -13463.121 -382.05007  97.2%     -  122s
H    0     0                    -421.5996173 -382.05007  9.38%     -  124s
H    0     0                    -405.9879546 -382.05007  5.90%     -  127s
     0     0 -383.54032    0  613 -405.98795 -383.54032  5.53%     -  163s
     0     0 -383.58889    0  614 -405.98795 -383.58889  5.52%     -  183s
     0     0 -384.70149    0  623 -405.98795 -384.70149  5.24%     -  300s
H    0     0                    -402.8656221 -384.70149  4.51%     -  308s
     0     0 -384.71881    0  621 -402.86562 -384.71881  4.50%     -  335s
     0     0 -384.71881    0  622 -402.86562 -384.71881  4.50%     -  337s
     0     0 -385.41960    0  581 -402.86562 -385.41960  4.33%     -  424s
     0     0 -385.41960    0  579 -402.86562 -385.41960  4.33%     -  432s
     0     0 -385.94531    0  606 -402.86562 -385.94531  4.20%     -  526s
     0     0 -386.11877    0  552 -402.86562 -386.11877  4.16%     -  542s
     0     0 -386.12645    0  547 -402.86562 -386.12645  4.16%     -  580s
     0     0 -386.12645    0  550 -402.86562 -386.12645  4.16%     -  602s
     0     0 -386.31765    0  575 -402.86562 -386.31765  4.11%     -  874s
     0     0 -386.32284    0  577 -402.86562 -386.32284  4.11%     -  883s
     0     0 -386.32284    0  577 -402.86562 -386.32284  4.11%     -  886s
     0     0 -387.19511    0  593 -402.86562 -387.19511  3.89%     - 1400s
     0     0 -387.19562    0  540 -402.86562 -387.19562  3.89%     - 1411s
     0     0 -387.36946    0  606 -402.86562 -387.36946  3.85%     - 1444s
     0     0 -387.43892    0  604 -402.86562 -387.43892  3.83%     - 1469s
     0     0 -387.45787    0  605 -402.86562 -387.45787  3.82%     - 1493s
     0     0 -387.46114    0  606 -402.86562 -387.46114  3.82%     - 1507s
     0     0 -387.46486    0  604 -402.86562 -387.46486  3.82%     - 1519s
     0     0 -387.46486    0  605 -402.86562 -387.46486  3.82%     - 1522s
     0     0 -387.91517    0  637 -402.86562 -387.91517  3.71%     - 1710s
     0     0 -387.97347    0  638 -402.86562 -387.97347  3.70%     - 1743s
     0     0 -388.01515    0  637 -402.86562 -388.01515  3.69%     - 1831s
     0     0 -388.01515    0  637 -402.86562 -388.01515  3.69%     - 1833s
     0     0 -389.03281    0  594 -402.86562 -389.03281  3.43%     - 2402s
     0     0 -389.05800    0  588 -402.86562 -389.05800  3.43%     - 2430s
     0     0 -389.06389    0  586 -402.86562 -389.06389  3.43%     - 2439s
     0     0 -389.06389    0  584 -402.86562 -389.06389  3.43%     - 2441s
     0     0 -389.56594    0  629 -402.86562 -389.56594  3.30%     - 2590s
     0     0 -389.63875    0  634 -402.86562 -389.63875  3.28%     - 2740s
     0     0 -390.84704    0  612 -402.86562 -390.84704  2.98%     - 4209s
     0     0 -390.84704    0  597 -402.86562 -390.84704  2.98%     - 4220s
     0     0 -390.84704    0  580 -402.86562 -390.84704  2.98%     - 4230s
     0     0 -390.84704    0  618 -402.86562 -390.84704  2.98%     - 4247s
     0     0 -390.84704    0  563 -402.86562 -390.84704  2.98%     - 4635s
     0     0 -390.92791    0  611 -402.86562 -390.92791  2.96%     - 4666s
     0     0 -390.95636    0  621 -402.86562 -390.95636  2.96%     - 4684s
     0     0 -390.97714    0  618 -402.86562 -390.97714  2.95%     - 4703s
     0     0 -390.97714    0  619 -402.86562 -390.97714  2.95%     - 4705s
     0     0 -391.01883    0  585 -402.86562 -391.01883  2.94%     - 5055s
     0     0 -391.09425    0  594 -402.86562 -391.09425  2.92%     - 5079s
     0     0 -391.10501    0  618 -402.86562 -391.10501  2.92%     - 5087s
     0     0 -391.10761    0  622 -402.86562 -391.10761  2.92%     - 5089s
     0     0 -391.15949    0  622 -402.86562 -391.15949  2.91%     - 5111s
     0     0 -391.16136    0  626 -402.86562 -391.16136  2.91%     - 5118s
     0     0 -391.16836    0  623 -402.86562 -391.16836  2.90%     - 5125s
     0     0 -391.74563    0  613 -402.86562 -391.74563  2.76%     - 5178s
     0     0 -391.79737    0  613 -402.86562 -391.79737  2.75%     - 5204s
     0     0 -391.79888    0  616 -402.86562 -391.79888  2.75%     - 5220s
     0     0 -391.79897    0  617 -402.86562 -391.79897  2.75%     - 5232s
     0     0 -391.92347    0  602 -402.86562 -391.92347  2.72%     - 5307s
     0     0 -392.11752    0  625 -402.86562 -392.11752  2.67%     - 5348s
     0     0 -392.18117    0  631 -402.86562 -392.18117  2.65%     - 5371s
     0     0 -392.19594    0  633 -402.86562 -392.19594  2.65%     - 5403s
     0     0 -392.20533    0  633 -402.86562 -392.20533  2.65%     - 5421s
     0     0 -392.20533    0  633 -402.86562 -392.20533  2.65%     - 5424s
     0     0 -392.98418    0  615 -402.86562 -392.98418  2.45%     - 5519s
     0     0 -393.04921    0  617 -402.86562 -393.04921  2.44%     - 5578s
     0     0 -393.07815    0  619 -402.86562 -393.07815  2.43%     - 5591s
     0     0 -393.07815    0  620 -402.86562 -393.07815  2.43%     - 5593s
     0     0 -393.15348    0  608 -402.86562 -393.15348  2.41%     - 5611s
     0     0 -393.28877    0  613 -402.86562 -393.28877  2.38%     - 5646s
     0     0 -393.29310    0  621 -402.86562 -393.29310  2.38%     - 5665s
     0     0 -393.29345    0  621 -402.86562 -393.29345  2.38%     - 5670s
     0     0 -393.57579    0  617 -402.86562 -393.57579  2.31%     - 5859s
     0     0 -393.66980    0  615 -402.86562 -393.66980  2.28%     - 5910s
     0     0 -393.69422    0  618 -402.86562 -393.69422  2.28%     - 5941s
     0     0 -393.69498    0  617 -402.86562 -393.69498  2.28%     - 5957s
     0     0 -394.58556    0  522 -402.86562 -394.58556  2.06%     - 8181s
     0     0 -394.58556    0  586 -402.86562 -394.58556  2.06%     - 8346s
     0     0 -394.58556    0  548 -402.86562 -394.58556  2.06%     - 8371s
     0     0 -394.58556    0  598 -402.86562 -394.58556  2.06%     - 8379s
     0     0 -394.58569    0  605 -402.86562 -394.58569  2.06%     - 8382s
     0     0 -394.58706    0  606 -402.86562 -394.58706  2.05%     - 8384s
     0     0 -394.58706    0  608 -402.86562 -394.58706  2.05%     - 8386s
     0     0 -395.58018    0  518 -402.86562 -395.58018  1.81%     - 8396s
     0     0 -395.58018    0  516 -402.86562 -395.58018  1.81%     - 8399s
     0     0 -395.77533    0  489 -402.86562 -395.77533  1.76%     - 8409s
     0     0 -395.78033    0  485 -402.86562 -395.78033  1.76%     - 8412s
     0     0 -395.78033    0  486 -402.86562 -395.78033  1.76%     - 8414s
     0     0 -395.78033    0  489 -402.86562 -395.78033  1.76%     - 8417s
     0     0 -395.78033    0  490 -402.86562 -395.78033  1.76%     - 8423s
     0     0 -395.86039    0  442 -402.86562 -395.86039  1.74%     - 8485s
     0     0 -395.86039    0  498 -402.86562 -395.86039  1.74%     - 8491s
     0     0 -395.99649    0  474 -402.86562 -395.99649  1.71%     - 8500s
     0     0 -396.00595    0  529 -402.86562 -396.00595  1.70%     - 8506s
     0     0 -396.01384    0  534 -402.86562 -396.01384  1.70%     - 8510s
     0     0 -396.01384    0  543 -402.86562 -396.01384  1.70%     - 8514s
     0     0 -396.56675    0  538 -402.86562 -396.56675  1.56%     - 8519s
     0     0 -396.74711    0  541 -402.86562 -396.74711  1.52%     - 8524s
     0     0 -396.83779    0  539 -402.86562 -396.83779  1.50%     - 8526s
     0     0 -396.84079    0  540 -402.86562 -396.84079  1.50%     - 8528s
     0     0 -396.84321    0  541 -402.86562 -396.84321  1.49%     - 8530s
     0     0 -396.84321    0  542 -402.86562 -396.84321  1.49%     - 8531s
     0     0 -396.86585    0  533 -402.86562 -396.86585  1.49%     - 8580s
     0     0 -396.86585    0  576 -402.86562 -396.86585  1.49%     - 8608s
     0     0 -396.86585    0  579 -402.86562 -396.86585  1.49%     - 8613s
     0     0 -396.86585    0  576 -402.86562 -396.86585  1.49%     - 8614s
     0     0 -396.87448    0  611 -402.86562 -396.87448  1.49%     - 8616s
     0     0 -396.87448    0  613 -402.86562 -396.87448  1.49%     - 8616s
     0     0 -397.44161    0  524 -402.86562 -397.44161  1.35%     - 8620s
     0     0 -397.44161    0  581 -402.86562 -397.44161  1.35%     - 8625s
     0     0 -397.44161    0  557 -402.86562 -397.44161  1.35%     - 8626s
     0     0 -397.44161    0  527 -402.86562 -397.44161  1.35%     - 8626s
     0     0 -397.44183    0  526 -402.86562 -397.44183  1.35%     - 8626s
     0     0 -397.44183    0  527 -402.86562 -397.44183  1.35%     - 8626s
     0     0 -397.50658    0  525 -402.86562 -397.50658  1.33%     - 8627s
     0     0 -397.50658    0  576 -402.86562 -397.50658  1.33%     - 8628s
     0     0 -397.50658    0  558 -402.86562 -397.50658  1.33%     - 8629s
     0     0 -397.50658    0  564 -402.86562 -397.50658  1.33%     - 8629s
     0     0 -397.50658    0  559 -402.86562 -397.50658  1.33%     - 8629s
     0     0 -397.50665    0  560 -402.86562 -397.50665  1.33%     - 8629s
     0     0 -397.75993    0  520 -402.86562 -397.75993  1.27%     - 8629s
     0     0 -397.77805    0  520 -402.86562 -397.77805  1.26%     - 8630s
     0     0 -397.77805    0  523 -402.86562 -397.77805  1.26%     - 8630s
     0     0 -397.82016    0  530 -402.86562 -397.82016  1.25%     - 8630s
     0     0 -397.83438    0  533 -402.86562 -397.83438  1.25%     - 8630s
     0     0 -397.86740    0  531 -402.86562 -397.86740  1.24%     - 8630s
     0     0 -397.86756    0  530 -402.86562 -397.86756  1.24%     - 8630s
     0     0 -397.94886    0  538 -402.86562 -397.94886  1.22%     - 8630s
     0     0 -397.95011    0  543 -402.86562 -397.95011  1.22%     - 8631s
     0     0 -398.09717    0  532 -402.86562 -398.09717  1.18%     - 8631s
     0     0 -398.14735    0  545 -402.86562 -398.14735  1.17%     - 8631s
     0     0 -398.15632    0  544 -402.86562 -398.15632  1.17%     - 8631s
     0     0 -398.15866    0  544 -402.86562 -398.15866  1.17%     - 8631s
     0     0 -398.27394    0  535 -402.86562 -398.27394  1.14%     - 8631s
     0     0 -398.32919    0  552 -402.86562 -398.32919  1.13%     - 8632s
     0     0 -398.32958    0  552 -402.86562 -398.32958  1.13%     - 8632s
     0     0 -398.40416    0  542 -402.86562 -398.40416  1.11%     - 8632s
     0     0 -398.40523    0  539 -402.86562 -398.40523  1.11%     - 8632s
     0     0 -398.52009    0  554 -402.86562 -398.52009  1.08%     - 8632s
     0     0 -398.55700    0  555 -402.86562 -398.55700  1.07%     - 8633s
     0     0 -398.58152    0  556 -402.86562 -398.58152  1.06%     - 8633s
     0     0 -398.58521    0  557 -402.86562 -398.58521  1.06%     - 8633s
     0     0 -398.58521    0  557 -402.86562 -398.58521  1.06%     - 8633s
     0     0 -398.94917    0  552 -402.86562 -398.94917  0.97%     - 8633s
     0     0 -398.95391    0  555 -402.86562 -398.95391  0.97%     - 8633s
     0     0 -398.95593    0  554 -402.86562 -398.95593  0.97%     - 8633s
     0     0 -399.16931    0  549 -402.86562 -399.16931  0.92%     - 8633s
     0     0 -399.27211    0  543 -402.86562 -399.27211  0.89%     - 8634s
     0     0 -399.27211    0  543 -402.86562 -399.27211  0.89%     - 8634s
     0     0 -399.27211    0  544 -402.86562 -399.27211  0.89%     - 8634s
     0     0 -399.27211    0  545 -402.86562 -399.27211  0.89%     - 8634s
     0     0 -399.35884    0  541 -402.86562 -399.35884  0.87%     - 8634s
     0     0 -399.35884    0  538 -402.86562 -399.35884  0.87%     - 8634s
     0     0 -399.44557    0  517 -402.86562 -399.44557  0.85%     - 8635s
     0     0 -399.44557    0  522 -402.86562 -399.44557  0.85%     - 8635s
     0     0 -399.44557    0  531 -402.86562 -399.44557  0.85%     - 8635s
     0     0 -399.44557    0  528 -402.86562 -399.44557  0.85%     - 8635s
     0     0 -399.45470    0  549 -402.86562 -399.45470  0.85%     - 8636s
     0     0 -399.45577    0  550 -402.86562 -399.45577  0.85%     - 8636s
     0     0 -399.49894    0  528 -402.86562 -399.49894  0.84%     - 8636s
     0     0 -399.50339    0  533 -402.86562 -399.50339  0.83%     - 8637s
     0     0 -399.50339    0  534 -402.86562 -399.50339  0.83%     - 8637s
     0     0 -399.50339    0  529 -402.86562 -399.50339  0.83%     - 8637s
     0     0 -399.51495    0  541 -402.86562 -399.51495  0.83%     - 8637s
     0     0 -399.51495    0  541 -402.86562 -399.51495  0.83%     - 8637s
     0     0 -399.51495    0  541 -402.86562 -399.51495  0.83%     - 8638s
     0     0 -399.51495    0  541 -402.86562 -399.51495  0.83%     - 8638s
     0     0 -399.51495    0  531 -402.86562 -399.51495  0.83%     - 8638s
     0     0 -399.51495    0  531 -402.86562 -399.51495  0.83%     - 8638s
     0     0 -399.51495    0  576 -402.86562 -399.51495  0.83%     - 8640s
     0     0 -399.51495    0  494 -402.86562 -399.51495  0.83%     - 8641s
     0     0 -399.51495    0  527 -402.86562 -399.51495  0.83%     - 8641s
     0     0 -399.51495    0  535 -402.86562 -399.51495  0.83%     - 8641s
     0     0 -399.51495    0  537 -402.86562 -399.51495  0.83%     - 8641s
     0     0 -399.51495    0  534 -402.86562 -399.51495  0.83%     - 8641s
     0     0 -399.51495    0  535 -402.86562 -399.51495  0.83%     - 8641s
     0     0 -399.61903    0  532 -402.86562 -399.61903  0.81%     - 8642s
     0     0 -399.63255    0  531 -402.86562 -399.63255  0.80%     - 8642s
     0     0 -399.64572    0  543 -402.86562 -399.64572  0.80%     - 8642s
     0     0 -399.64696    0  543 -402.86562 -399.64696  0.80%     - 8642s
     0     0 -399.64696    0  543 -402.86562 -399.64696  0.80%     - 8642s
     0     0 -399.64696    0  544 -402.86562 -399.64696  0.80%     - 8642s
     0     0 -399.64696    0  544 -402.86562 -399.64696  0.80%     - 8642s
     0     0 -399.64696    0  520 -402.86562 -399.64696  0.80%     - 8643s
     0     0 -399.64696    0  530 -402.86562 -399.64696  0.80%     - 8643s
     0     0 -399.64696    0  532 -402.86562 -399.64696  0.80%     - 8644s
     0     0 -399.64696    0  534 -402.86562 -399.64696  0.80%     - 8644s
     0     0 -399.64696    0  539 -402.86562 -399.64696  0.80%     - 8644s
     0     0 -399.64696    0  543 -402.86562 -399.64696  0.80%     - 8644s
     0     0 -399.64696    0  538 -402.86562 -399.64696  0.80%     - 8645s
     0     0 -399.64696    0  538 -402.86562 -399.64696  0.80%     - 8645s
     0     2 -399.71469    0  538 -402.86562 -399.71469  0.78%     - 8645s

Cutting planes:
  Gomory: 8
  Zero half: 99

Explored 126 nodes (580971 simplex iterations) in 8648.52 seconds
Thread count was 1 (of 80 available processors)

Solution count 8: -402.866 -402.866 -402.866 ... -13463.1

Optimal solution found (tolerance 1.00e-04)
Best objective -4.028656220760e+02, best bound -4.028656220760e+02, gap 0.0000%
